50

98 49 174
96 32 254
96 22 178
87 39 282
87 15 191
87 42 326
86 12 170
85 10 266
83 2 282
83 3 301
82 19 253
81 0 153
77 3 305
74 2 333
67 10 211
65 16 325
64 1 224
64 24 173
63 20 256
60 17 205
57 7 354
57 16 353
56 20 156
55 13 201
50 13 357
49 17 287
46 8 345
43 22 232
43 5 244
42 18 327
37 5 322
33 14 360
31 3 313
31 0 175
27 5 185
27 7 230
26 7 306
25 7 177
23 1 152
23 5 317
19 2 250
18 0 189
15 5 198
13 6 359
10 5 294
9 2 337
6 0 333
3 1 227
2 1 332
1 0 322
